(set-logic QF_S)
(declare-fun var0 () String)
(declare-fun var1 () String)
(declare-fun var2 () String)
(declare-fun var3 () String)
(declare-fun var4 () Int)
(declare-fun var5 () Int)
(declare-fun var6 () Int)
(declare-fun var7 () Int)
(assert (>= (str.len var0) (str.to.int var1)))
(assert (str.prefixof var2 var3))
(assert (str.prefixof var1 var2))
(assert (str.prefixof (str.replace (str.replace var1 var0 "Kd=GeV") (str.substr var3 var4 var5) (str.at var1 var6)) (str.at var3 var7)))
(check-sat)